results/res_prop_muc/res_Cimatti_mathsat_cores/QF_UF/SEQ011_size3.smt.smt2.out

real	0m0.169s
user	0m0.088s
sys	0m0.008s
